
  32    4
  10   10   10   10

   0   0   0   0   0   2 2 7 
   4  10  10  10  10   2 12 3 
   8  10  10  10  10   2 6 4 
   4  10  10  10  10   3 11 8 5 
   5  10  10  10  10   4 23 22 17 9 
   8  10  10  10  10   4 23 22 17 9 
   1  10  10  10  10   1 8 
   6  10  10  10  10   4 23 22 17 10 
   4  10  10  10  10   1 10 
   3  10  10  10  10   2 20 13 
   1  10  10  10  10   3 20 17 15 
  10  10  10  10  10   2 17 14 
   1  10  10  10  10   1 14 
  10  10  10  10  10   1 15 
   2  10  10  10  10   3 25 18 16 
   6  10  10  10  10   2 24 19 
   9  10  10  10  10   2 25 19 
   9  10  10  10  10   4 29 27 26 24 
  10  10  10  10  10   2 29 21 
   6  10  10  10  10   3 27 26 24 
   4  10  10  10  10   3 31 27 26 
  10  10  10  10  10   3 31 29 26 
   3  10  10  10  10   2 31 25 
   1  10  10  10  10   2 31 28 
   5  10  10  10  10   2 29 28 
   6  10  10  10  10   1 28 
   5  10  10  10  10   1 28 
   5  10  10  10  10   1 30 
   7  10  10  10  10   1 30 
  10  10  10  10  10   1 32
   2  10  10  10  10   1 32
   0   0   0   0   0   0 
